input1.lp
max
    19x1 + 13x2 + 12x3 + 17x4
subject to
    3x1 + 2x2 + 1x3 + 2x4 <= 225
    1x1 + 1x2 + 1x3 + 1x4 <= 117
    4x1 + 3x2 + 3x3 + 4x4 <= 420
bounds
    x1 >= 0
    x2 >= 0
    x3 >= 0
    x4 >= 0
end