input1.mps
*SENSE:Maximize
NAME          input1
ROWS
 N  obj
 L  c1
 L  c2
 L  c3
COLUMNS
    x_1       c1         3.000000000000e+00
    x_1       c2         1.000000000000e+00
    x_1       c3         4.000000000000e+00
    x_1       obj        1.900000000000e+01
    x_2       c1         2.000000000000e+00
    x_2       c2         1.000000000000e+00
    x_2       c3         3.000000000000e+00
    x_2       obj        1.300000000000e+01
    x_3       c1         1.000000000000e+00
    x_3       c2         1.000000000000e+00
    x_3       c3         3.000000000000e+00
    x_3       obj        1.200000000000e+01
    x_4       c1         2.000000000000e+00
    x_4       c2         1.000000000000e+00
    x_4       c3         4.000000000000e+00
    x_4       obj        1.700000000000e+01
RHS
    RHS       c1         2.250000000000e+02
    RHS       c2         1.170000000000e+02
    RHS       c3         4.200000000000e+02
BOUNDS
 UP BND       x_1        inf
 UP BND       x_2        inf
 UP BND       x_3        inf
 UP BND       x_4        inf
ENDATA
